c {"clauses":7,"maxClauseSize":12,"minClauseSize":4,"totalLiterals":57,"variables":47}
p cnf 47 7
1 2 -3 -4 -5 6 -7 8 -9 -10 -10 0
11 12 13 -14 -5 -15 -2 0
-2 16 -17 18 -19 -20 21 22 23 24 25 26 0
27 28 -29 3 0
-30 31 32 -33 -34 35 -36 -37 -18 0
38 -37 20 -10 -39 0
-40 -41 -22 42 43 44 45 -46 47 0
